<instance format="XCSP3" type="COP">
  <variables>
    <array id="emetteurs" note="Définition des variables du problème" size="[50]"> 14 28 42 56 70 84 98 112 126 140 154 168 182 196 210 224 238 252 266 280 294 308 322 336 350 364 378 392 406 420 434 448 462 476 490 504 518 532 546 560 574 588 602 616 630 644 658 672 686 700 714 728 </array>
    <array id="recepteurs" size="[50]" as="emetteurs"/>
    <array id="aux_gb" note="aux_gb[i] is the ith auxiliary variable having been automatically introduced" size="[14]">
      <domain for="aux_gb[0..1] aux_gb[12..13]"> 1..8 </domain>
      <domain for="aux_gb[2] aux_gb[3]"> 1..7 </domain>
      <domain for="aux_gb[4..7]"> 1..9 </domain>
      <domain for="aux_gb[8] aux_gb[9]"> 1..5 </domain>
      <domain for="aux_gb[10] aux_gb[11]"> 1..4 </domain>
    </array>
  </variables>
  <constraints>
    <group note="distance entre fréquence émettrice et réceptrice d'une station">
      <intension> eq(dist(%0,%1),266) </intension>
      <args> emetteurs[0] recepteurs[0] </args>
      <args> emetteurs[1] recepteurs[1] </args>
      <args> emetteurs[2] recepteurs[2] </args>
      <args> emetteurs[3] recepteurs[3] </args>
      <args> emetteurs[4] recepteurs[4] </args>
      <args> emetteurs[5] recepteurs[5] </args>
      <args> emetteurs[6] recepteurs[6] </args>
      <args> emetteurs[7] recepteurs[7] </args>
      <args> emetteurs[8] recepteurs[8] </args>
      <args> emetteurs[9] recepteurs[9] </args>
      <args> emetteurs[10] recepteurs[10] </args>
      <args> emetteurs[11] recepteurs[11] </args>
      <args> emetteurs[12] recepteurs[12] </args>
      <args> emetteurs[13] recepteurs[13] </args>
      <args> emetteurs[14] recepteurs[14] </args>
      <args> emetteurs[15] recepteurs[15] </args>
      <args> emetteurs[16] recepteurs[16] </args>
      <args> emetteurs[17] recepteurs[17] </args>
      <args> emetteurs[18] recepteurs[18] </args>
      <args> emetteurs[19] recepteurs[19] </args>
      <args> emetteurs[20] recepteurs[20] </args>
      <args> emetteurs[21] recepteurs[21] </args>
      <args> emetteurs[22] recepteurs[22] </args>
      <args> emetteurs[23] recepteurs[23] </args>
      <args> emetteurs[24] recepteurs[24] </args>
      <args> emetteurs[25] recepteurs[25] </args>
      <args> emetteurs[26] recepteurs[26] </args>
      <args> emetteurs[27] recepteurs[27] </args>
      <args> emetteurs[28] recepteurs[28] </args>
      <args> emetteurs[29] recepteurs[29] </args>
      <args> emetteurs[30] recepteurs[30] </args>
      <args> emetteurs[31] recepteurs[31] </args>
      <args> emetteurs[32] recepteurs[32] </args>
      <args> emetteurs[33] recepteurs[33] </args>
      <args> emetteurs[34] recepteurs[34] </args>
      <args> emetteurs[35] recepteurs[35] </args>
      <args> emetteurs[36] recepteurs[36] </args>
      <args> emetteurs[37] recepteurs[37] </args>
      <args> emetteurs[38] recepteurs[38] </args>
      <args> emetteurs[39] recepteurs[39] </args>
      <args> emetteurs[40] recepteurs[40] </args>
      <args> emetteurs[41] recepteurs[41] </args>
      <args> emetteurs[42] recepteurs[42] </args>
      <args> emetteurs[43] recepteurs[43] </args>
      <args> emetteurs[44] recepteurs[44] </args>
      <args> emetteurs[45] recepteurs[45] </args>
      <args> emetteurs[46] recepteurs[46] </args>
      <args> emetteurs[47] recepteurs[47] </args>
      <args> emetteurs[48] recepteurs[48] </args>
      <args> emetteurs[49] recepteurs[49] </args>
    </group>
    <group note="distance entre fréquence de station proche">
      <intension> and(ge(dist(%0,%1),%2),ge(dist(%3,%4),%2)) </intension>
      <args> emetteurs[0] emetteurs[14] 50 recepteurs[0] recepteurs[14] </args>
      <args> emetteurs[0] emetteurs[24] 50 recepteurs[0] recepteurs[24] </args>
      <args> emetteurs[0] emetteurs[26] 20 recepteurs[0] recepteurs[26] </args>
      <args> emetteurs[0] emetteurs[1] 20 recepteurs[0] recepteurs[1] </args>
      <args> emetteurs[1] emetteurs[25] 50 recepteurs[1] recepteurs[25] </args>
      <args> emetteurs[1] emetteurs[24] 30 recepteurs[1] recepteurs[24] </args>
      <args> emetteurs[1] emetteurs[10] 30 recepteurs[1] recepteurs[10] </args>
      <args> emetteurs[1] emetteurs[17] 30 recepteurs[1] recepteurs[17] </args>
      <args> emetteurs[2] emetteurs[33] 20 recepteurs[2] recepteurs[33] </args>
      <args> emetteurs[3] emetteurs[23] 30 recepteurs[3] recepteurs[23] </args>
      <args> emetteurs[3] emetteurs[18] 40 recepteurs[3] recepteurs[18] </args>
      <args> emetteurs[3] emetteurs[42] 30 recepteurs[3] recepteurs[42] </args>
      <args> emetteurs[3] emetteurs[12] 40 recepteurs[3] recepteurs[12] </args>
      <args> emetteurs[4] emetteurs[18] 40 recepteurs[4] recepteurs[18] </args>
      <args> emetteurs[4] emetteurs[5] 40 recepteurs[4] recepteurs[5] </args>
      <args> emetteurs[6] emetteurs[29] 30 recepteurs[6] recepteurs[29] </args>
      <args> emetteurs[6] emetteurs[27] 50 recepteurs[6] recepteurs[27] </args>
      <args> emetteurs[7] emetteurs[23] 50 recepteurs[7] recepteurs[23] </args>
      <args> emetteurs[7] emetteurs[35] 40 recepteurs[7] recepteurs[35] </args>
      <args> emetteurs[7] emetteurs[39] 20 recepteurs[7] recepteurs[39] </args>
      <args> emetteurs[7] emetteurs[12] 20 recepteurs[7] recepteurs[12] </args>
      <args> emetteurs[8] emetteurs[35] 40 recepteurs[8] recepteurs[35] </args>
      <args> emetteurs[9] emetteurs[47] 20 recepteurs[9] recepteurs[47] </args>
      <args> emetteurs[10] emetteurs[37] 40 recepteurs[10] recepteurs[37] </args>
      <args> emetteurs[11] emetteurs[26] 20 recepteurs[11] recepteurs[26] </args>
      <args> emetteurs[11] emetteurs[44] 40 recepteurs[11] recepteurs[44] </args>
      <args> emetteurs[12] emetteurs[20] 40 recepteurs[12] recepteurs[20] </args>
      <args> emetteurs[12] emetteurs[48] 20 recepteurs[12] recepteurs[48] </args>
      <args> emetteurs[12] emetteurs[30] 40 recepteurs[12] recepteurs[30] </args>
      <args> emetteurs[12] emetteurs[15] 40 recepteurs[12] recepteurs[15] </args>
      <args> emetteurs[13] emetteurs[39] 50 recepteurs[13] recepteurs[39] </args>
      <args> emetteurs[14] emetteurs[29] 30 recepteurs[14] recepteurs[29] </args>
      <args> emetteurs[14] emetteurs[24] 40 recepteurs[14] recepteurs[24] </args>
      <args> emetteurs[18] emetteurs[36] 30 recepteurs[18] recepteurs[36] </args>
      <args> emetteurs[19] emetteurs[23] 20 recepteurs[19] recepteurs[23] </args>
      <args> emetteurs[21] emetteurs[29] 50 recepteurs[21] recepteurs[29] </args>
      <args> emetteurs[22] emetteurs[40] 40 recepteurs[22] recepteurs[40] </args>
      <args> emetteurs[22] emetteurs[43] 20 recepteurs[22] recepteurs[43] </args>
      <args> emetteurs[22] emetteurs[45] 30 recepteurs[22] recepteurs[45] </args>
      <args> emetteurs[22] emetteurs[49] 30 recepteurs[22] recepteurs[49] </args>
      <args> emetteurs[23] emetteurs[40] 30 recepteurs[23] recepteurs[40] </args>
      <args> emetteurs[23] emetteurs[37] 50 recepteurs[23] recepteurs[37] </args>
      <args> emetteurs[23] emetteurs[32] 40 recepteurs[23] recepteurs[32] </args>
      <args> emetteurs[24] emetteurs[25] 40 recepteurs[24] recepteurs[25] </args>
      <args> emetteurs[25] emetteurs[41] 20 recepteurs[25] recepteurs[41] </args>
      <args> emetteurs[26] emetteurs[38] 50 recepteurs[26] recepteurs[38] </args>
      <args> emetteurs[28] emetteurs[41] 30 recepteurs[28] recepteurs[41] </args>
      <args> emetteurs[31] emetteurs[40] 30 recepteurs[31] recepteurs[40] </args>
      <args> emetteurs[31] emetteurs[43] 30 recepteurs[31] recepteurs[43] </args>
      <args> emetteurs[31] emetteurs[33] 30 recepteurs[31] recepteurs[33] </args>
      <args> emetteurs[33] emetteurs[46] 40 recepteurs[33] recepteurs[46] </args>
      <args> emetteurs[34] emetteurs[38] 50 recepteurs[34] recepteurs[38] </args>
      <args> emetteurs[34] emetteurs[45] 30 recepteurs[34] recepteurs[45] </args>
      <args> emetteurs[35] emetteurs[42] 40 recepteurs[35] recepteurs[42] </args>
      <args> emetteurs[35] emetteurs[36] 30 recepteurs[35] recepteurs[36] </args>
      <args> emetteurs[38] emetteurs[44] 50 recepteurs[38] recepteurs[44] </args>
    </group>
    <group note="limiter le nombre de fréquences utilisé par station">
      <intension> le(add(%0,%1),%2) </intension>
      <args> aux_gb[0] aux_gb[1] 16 </args>
      <args> aux_gb[2] aux_gb[3] 12 </args>
      <args> aux_gb[4] aux_gb[5] 17 </args>
      <args> aux_gb[6] aux_gb[7] 17 </args>
      <args> aux_gb[8] aux_gb[9] 8 </args>
      <args> aux_gb[10] aux_gb[11] 6 </args>
      <args> aux_gb[12] aux_gb[13] 14 </args>
    </group>
    <group note="liaisons entre fréquences émettrices et réceptrices">
      <intension> eq(%0,%1) </intension>
      <args> emetteurs[8] recepteurs[47] </args>
      <args> emetteurs[8] recepteurs[15] </args>
      <args> emetteurs[11] recepteurs[38] </args>
      <args> emetteurs[13] recepteurs[16] </args>
      <args> emetteurs[30] recepteurs[42] </args>
      <args> emetteurs[43] recepteurs[44] </args>
    </group>
    <group>
      <intension> eq(%0,%1) </intension>
      <args> emetteurs[47] recepteurs[8] </args>
      <args> emetteurs[15] recepteurs[8] </args>
      <args> emetteurs[38] recepteurs[11] </args>
      <args> emetteurs[16] recepteurs[13] </args>
      <args> emetteurs[42] recepteurs[30] </args>
      <args> emetteurs[44] recepteurs[43] </args>
    </group>
    <group>
      <nValues>
        <list> %... </list>
        <condition> (eq,%0) </condition>
      </nValues>
      <args> aux_gb[0] emetteurs[8..9] emetteurs[12] emetteurs[15] emetteurs[30] emetteurs[35..36] emetteurs[47] </args>
      <args> aux_gb[1] recepteurs[8..9] recepteurs[12] recepteurs[15] recepteurs[30] recepteurs[35..36] recepteurs[47] </args>
      <args> aux_gb[2] emetteurs[3..5] emetteurs[18..20] emetteurs[42] </args>
      <args> aux_gb[3] recepteurs[3..5] recepteurs[18..20] recepteurs[42] </args>
      <args> aux_gb[4] emetteurs[0] emetteurs[11] emetteurs[21] emetteurs[24] emetteurs[26] emetteurs[34] emetteurs[38] emetteurs[44..45] </args>
      <args> aux_gb[5] recepteurs[0] recepteurs[11] recepteurs[21] recepteurs[24] recepteurs[26] recepteurs[34] recepteurs[38] recepteurs[44..45] </args>
      <args> aux_gb[6] emetteurs[2] emetteurs[10] emetteurs[17] emetteurs[22] emetteurs[32..33] emetteurs[37] emetteurs[46] emetteurs[49] </args>
      <args> aux_gb[7] recepteurs[2] recepteurs[10] recepteurs[17] recepteurs[22] recepteurs[32..33] recepteurs[37] recepteurs[46] recepteurs[49] </args>
      <args> aux_gb[8] emetteurs[7] emetteurs[13] emetteurs[16] emetteurs[39] emetteurs[48] </args>
      <args> aux_gb[9] recepteurs[7] recepteurs[13] recepteurs[16] recepteurs[39] recepteurs[48] </args>
      <args> aux_gb[10] emetteurs[23] emetteurs[31] emetteurs[40] emetteurs[43] </args>
      <args> aux_gb[11] recepteurs[23] recepteurs[31] recepteurs[40] recepteurs[43] </args>
      <args> aux_gb[12] emetteurs[1] emetteurs[6] emetteurs[14] emetteurs[25] emetteurs[27..29] emetteurs[41] </args>
      <args> aux_gb[13] recepteurs[1] recepteurs[6] recepteurs[14] recepteurs[25] recepteurs[27..29] recepteurs[41] </args>
    </group>
  </constraints>
  <objectives>
    <minimize type="nValues"> emetteurs[] recepteurs[] </minimize>
  </objectives>
</instance>
